#from Caballero, Grossmann (Design of distillation sequences: from conventional to fully thermally coupled distillation systems, Computers & Chemical Engineering)
#example 3 -reduced(2,4,5)

set C := 1, 2, 3;

param alpha := 1 3.6 2 1.42 3 1.0;